\ Model MILP1
\ LP format - for model browsing. Use MPS format to capture full model detail.
Minimize
  P(0) + P(1) + P(2) + P(3) + P(4) + P(5) + P(6) + P(7) + P(8) + P(9)
Subject To
 constr(0): x(0)(0) + x(1)(0) + x(2)(0) + x(3)(0) + x(4)(0) + x(5)(0)
   + x(6)(0) + x(7)(0) + x(8)(0) + x(9)(0) = 1
 constr(1): x(0)(1) + x(1)(1) + x(2)(1) + x(3)(1) + x(4)(1) + x(5)(1)
   + x(6)(1) + x(7)(1) + x(8)(1) + x(9)(1) = 1
 constr(2): x(0)(2) + x(1)(2) + x(2)(2) + x(3)(2) + x(4)(2) + x(5)(2)
   + x(6)(2) + x(7)(2) + x(8)(2) + x(9)(2) = 1
 constr(3): x(0)(3) + x(1)(3) + x(2)(3) + x(3)(3) + x(4)(3) + x(5)(3)
   + x(6)(3) + x(7)(3) + x(8)(3) + x(9)(3) = 1
 constr(4): x(0)(4) + x(1)(4) + x(2)(4) + x(3)(4) + x(4)(4) + x(5)(4)
   + x(6)(4) + x(7)(4) + x(8)(4) + x(9)(4) = 1
 constr(5): x(0)(5) + x(1)(5) + x(2)(5) + x(3)(5) + x(4)(5) + x(5)(5)
   + x(6)(5) + x(7)(5) + x(8)(5) + x(9)(5) = 1
 constr(6): x(0)(6) + x(1)(6) + x(2)(6) + x(3)(6) + x(4)(6) + x(5)(6)
   + x(6)(6) + x(7)(6) + x(8)(6) + x(9)(6) = 1
 constr(7): x(0)(7) + x(1)(7) + x(2)(7) + x(3)(7) + x(4)(7) + x(5)(7)
   + x(6)(7) + x(7)(7) + x(8)(7) + x(9)(7) = 1
 constr(8): x(0)(8) + x(1)(8) + x(2)(8) + x(3)(8) + x(4)(8) + x(5)(8)
   + x(6)(8) + x(7)(8) + x(8)(8) + x(9)(8) = 1
 constr(9): x(0)(9) + x(1)(9) + x(2)(9) + x(3)(9) + x(4)(9) + x(5)(9)
   + x(6)(9) + x(7)(9) + x(8)(9) + x(9)(9) = 1
 constr(10): 2 x(0)(0) + 3 x(0)(1) + 3 x(0)(2) + 4 x(0)(3) + 2 x(0)(4)
   + 5 x(0)(5) + 2 x(0)(6) + 2 x(0)(7) + 3 x(0)(8) + 5 x(0)(9) <= 20
 constr(11): 2 x(1)(0) + 3 x(1)(1) + 3 x(1)(2) + 4 x(1)(3) + 2 x(1)(4)
   + 5 x(1)(5) + 2 x(1)(6) + 2 x(1)(7) + 3 x(1)(8) + 5 x(1)(9) <= 20
 constr(12): 2 x(2)(0) + 3 x(2)(1) + 3 x(2)(2) + 4 x(2)(3) + 2 x(2)(4)
   + 5 x(2)(5) + 2 x(2)(6) + 2 x(2)(7) + 3 x(2)(8) + 5 x(2)(9) <= 20
 constr(13): 2 x(3)(0) + 3 x(3)(1) + 3 x(3)(2) + 4 x(3)(3) + 2 x(3)(4)
   + 5 x(3)(5) + 2 x(3)(6) + 2 x(3)(7) + 3 x(3)(8) + 5 x(3)(9) <= 20
 constr(14): 2 x(4)(0) + 3 x(4)(1) + 3 x(4)(2) + 4 x(4)(3) + 2 x(4)(4)
   + 5 x(4)(5) + 2 x(4)(6) + 2 x(4)(7) + 3 x(4)(8) + 5 x(4)(9) <= 20
 constr(15): 2 x(5)(0) + 3 x(5)(1) + 3 x(5)(2) + 4 x(5)(3) + 2 x(5)(4)
   + 5 x(5)(5) + 2 x(5)(6) + 2 x(5)(7) + 3 x(5)(8) + 5 x(5)(9) <= 20
 constr(16): 2 x(6)(0) + 3 x(6)(1) + 3 x(6)(2) + 4 x(6)(3) + 2 x(6)(4)
   + 5 x(6)(5) + 2 x(6)(6) + 2 x(6)(7) + 3 x(6)(8) + 5 x(6)(9) <= 20
 constr(17): 2 x(7)(0) + 3 x(7)(1) + 3 x(7)(2) + 4 x(7)(3) + 2 x(7)(4)
   + 5 x(7)(5) + 2 x(7)(6) + 2 x(7)(7) + 3 x(7)(8) + 5 x(7)(9) <= 20
 constr(18): 2 x(8)(0) + 3 x(8)(1) + 3 x(8)(2) + 4 x(8)(3) + 2 x(8)(4)
   + 5 x(8)(5) + 2 x(8)(6) + 2 x(8)(7) + 3 x(8)(8) + 5 x(8)(9) <= 20
 constr(19): 2 x(9)(0) + 3 x(9)(1) + 3 x(9)(2) + 4 x(9)(3) + 2 x(9)(4)
   + 5 x(9)(5) + 2 x(9)(6) + 2 x(9)(7) + 3 x(9)(8) + 5 x(9)(9) <= 20
 constr(20): 11 x(0)(0) - P(0) <= 0
 constr(21): 11 x(1)(0) - P(1) <= 0
 constr(22): 11 x(2)(0) - P(2) <= 0
 constr(23): 11 x(3)(0) - P(3) <= 0
 constr(24): 11 x(4)(0) - P(4) <= 0
 constr(25): 11 x(5)(0) - P(5) <= 0
 constr(26): 11 x(6)(0) - P(6) <= 0
 constr(27): 11 x(7)(0) - P(7) <= 0
 constr(28): 11 x(8)(0) - P(8) <= 0
 constr(29): 11 x(9)(0) - P(9) <= 0
 constr(30): 13 x(0)(1) - P(0) <= 0
 constr(31): 13 x(1)(1) - P(1) <= 0
 constr(32): 13 x(2)(1) - P(2) <= 0
 constr(33): 13 x(3)(1) - P(3) <= 0
 constr(34): 13 x(4)(1) - P(4) <= 0
 constr(35): 13 x(5)(1) - P(5) <= 0
 constr(36): 13 x(6)(1) - P(6) <= 0
 constr(37): 13 x(7)(1) - P(7) <= 0
 constr(38): 13 x(8)(1) - P(8) <= 0
 constr(39): 13 x(9)(1) - P(9) <= 0
 constr(40): 9 x(0)(2) - P(0) <= 0
 constr(41): 9 x(1)(2) - P(1) <= 0
 constr(42): 9 x(2)(2) - P(2) <= 0
 constr(43): 9 x(3)(2) - P(3) <= 0
 constr(44): 9 x(4)(2) - P(4) <= 0
 constr(45): 9 x(5)(2) - P(5) <= 0
 constr(46): 9 x(6)(2) - P(6) <= 0
 constr(47): 9 x(7)(2) - P(7) <= 0
 constr(48): 9 x(8)(2) - P(8) <= 0
 constr(49): 9 x(9)(2) - P(9) <= 0
 constr(50): 10 x(0)(3) - P(0) <= 0
 constr(51): 10 x(1)(3) - P(1) <= 0
 constr(52): 10 x(2)(3) - P(2) <= 0
 constr(53): 10 x(3)(3) - P(3) <= 0
 constr(54): 10 x(4)(3) - P(4) <= 0
 constr(55): 10 x(5)(3) - P(5) <= 0
 constr(56): 10 x(6)(3) - P(6) <= 0
 constr(57): 10 x(7)(3) - P(7) <= 0
 constr(58): 10 x(8)(3) - P(8) <= 0
 constr(59): 10 x(9)(3) - P(9) <= 0
 constr(60): 9 x(0)(4) - P(0) <= 0
 constr(61): 9 x(1)(4) - P(1) <= 0
 constr(62): 9 x(2)(4) - P(2) <= 0
 constr(63): 9 x(3)(4) - P(3) <= 0
 constr(64): 9 x(4)(4) - P(4) <= 0
 constr(65): 9 x(5)(4) - P(5) <= 0
 constr(66): 9 x(6)(4) - P(6) <= 0
 constr(67): 9 x(7)(4) - P(7) <= 0
 constr(68): 9 x(8)(4) - P(8) <= 0
 constr(69): 9 x(9)(4) - P(9) <= 0
 constr(70): 16 x(0)(5) - P(0) <= 0
 constr(71): 16 x(1)(5) - P(1) <= 0
 constr(72): 16 x(2)(5) - P(2) <= 0
 constr(73): 16 x(3)(5) - P(3) <= 0
 constr(74): 16 x(4)(5) - P(4) <= 0
 constr(75): 16 x(5)(5) - P(5) <= 0
 constr(76): 16 x(6)(5) - P(6) <= 0
 constr(77): 16 x(7)(5) - P(7) <= 0
 constr(78): 16 x(8)(5) - P(8) <= 0
 constr(79): 16 x(9)(5) - P(9) <= 0
 constr(80): 11 x(0)(6) - P(0) <= 0
 constr(81): 11 x(1)(6) - P(1) <= 0
 constr(82): 11 x(2)(6) - P(2) <= 0
 constr(83): 11 x(3)(6) - P(3) <= 0
 constr(84): 11 x(4)(6) - P(4) <= 0
 constr(85): 11 x(5)(6) - P(5) <= 0
 constr(86): 11 x(6)(6) - P(6) <= 0
 constr(87): 11 x(7)(6) - P(7) <= 0
 constr(88): 11 x(8)(6) - P(8) <= 0
 constr(89): 11 x(9)(6) - P(9) <= 0
 constr(90): 7 x(0)(7) - P(0) <= 0
 constr(91): 7 x(1)(7) - P(1) <= 0
 constr(92): 7 x(2)(7) - P(2) <= 0
 constr(93): 7 x(3)(7) - P(3) <= 0
 constr(94): 7 x(4)(7) - P(4) <= 0
 constr(95): 7 x(5)(7) - P(5) <= 0
 constr(96): 7 x(6)(7) - P(6) <= 0
 constr(97): 7 x(7)(7) - P(7) <= 0
 constr(98): 7 x(8)(7) - P(8) <= 0
 constr(99): 7 x(9)(7) - P(9) <= 0
 constr(100): 5 x(0)(8) - P(0) <= 0
 constr(101): 5 x(1)(8) - P(1) <= 0
 constr(102): 5 x(2)(8) - P(2) <= 0
 constr(103): 5 x(3)(8) - P(3) <= 0
 constr(104): 5 x(4)(8) - P(4) <= 0
 constr(105): 5 x(5)(8) - P(5) <= 0
 constr(106): 5 x(6)(8) - P(6) <= 0
 constr(107): 5 x(7)(8) - P(7) <= 0
 constr(108): 5 x(8)(8) - P(8) <= 0
 constr(109): 5 x(9)(8) - P(9) <= 0
 constr(110): 12 x(0)(9) - P(0) <= 0
 constr(111): 12 x(1)(9) - P(1) <= 0
 constr(112): 12 x(2)(9) - P(2) <= 0
 constr(113): 12 x(3)(9) - P(3) <= 0
 constr(114): 12 x(4)(9) - P(4) <= 0
 constr(115): 12 x(5)(9) - P(5) <= 0
 constr(116): 12 x(6)(9) - P(6) <= 0
 constr(117): 12 x(7)(9) - P(7) <= 0
 constr(118): 12 x(8)(9) - P(8) <= 0
 constr(119): 12 x(9)(9) - P(9) <= 0
Bounds
Binaries
 x(0)(0) x(1)(0) x(2)(0) x(3)(0) x(4)(0) x(5)(0) x(6)(0) x(7)(0) x(8)(0)
 x(9)(0) x(0)(1) x(1)(1) x(2)(1) x(3)(1) x(4)(1) x(5)(1) x(6)(1) x(7)(1)
 x(8)(1) x(9)(1) x(0)(2) x(1)(2) x(2)(2) x(3)(2) x(4)(2) x(5)(2) x(6)(2)
 x(7)(2) x(8)(2) x(9)(2) x(0)(3) x(1)(3) x(2)(3) x(3)(3) x(4)(3) x(5)(3)
 x(6)(3) x(7)(3) x(8)(3) x(9)(3) x(0)(4) x(1)(4) x(2)(4) x(3)(4) x(4)(4)
 x(5)(4) x(6)(4) x(7)(4) x(8)(4) x(9)(4) x(0)(5) x(1)(5) x(2)(5) x(3)(5)
 x(4)(5) x(5)(5) x(6)(5) x(7)(5) x(8)(5) x(9)(5) x(0)(6) x(1)(6) x(2)(6)
 x(3)(6) x(4)(6) x(5)(6) x(6)(6) x(7)(6) x(8)(6) x(9)(6) x(0)(7) x(1)(7)
 x(2)(7) x(3)(7) x(4)(7) x(5)(7) x(6)(7) x(7)(7) x(8)(7) x(9)(7) x(0)(8)
 x(1)(8) x(2)(8) x(3)(8) x(4)(8) x(5)(8) x(6)(8) x(7)(8) x(8)(8) x(9)(8)
 x(0)(9) x(1)(9) x(2)(9) x(3)(9) x(4)(9) x(5)(9) x(6)(9) x(7)(9) x(8)(9)
 x(9)(9)
End
